\ Model Linearization Heuristic_copy
\ LP format - for model browsing. Use MPS format to capture full model detail.
Maximize
 
Subject To
 R2335: - u[7476] + u[7566] = -0
Bounds
 -infinity <= u[7476] <= 0.7133792252125551
 u[7566] >= 0.9
End
